0000111001100100111
0000111011000000011
0001011001000000010
0001011001000000110
0001011001100100110
0001011011000000110
0001110001100000100
0001110001100000101
0001110001100110100
0001111001100000011
0001111001100000111
0001111001100110011
0001111001100110111
0001111011100000011
0001111011100000111
0010011001100110000
0010011001100110010
0010011001100110100
0010011001100110110
0010100011000000001
0010100011000010001
0010100011000010101
0010101011000000011
0010101011000000111
0010110011000000001
0010110011000000101
0010111001000000011
0010111011000000011
0011110001100110100
0011110001100110101
0011111001100000011
0011111001100000111
0011111001100110011
0011111001100110111
0011111011100000011
